rcpsp/heur_output_or_constraints/Log=5/heurj90.txt
encoding rcpsp/j90.sm/j9028_2.sm nv: 4897061 nc: 9841229 enctime: 74.06
encoding rcpsp/j90.sm/j9028_2.sm nv: 651584 nc: 1306490 enctime: 8.37
c File: j9028_2.smnaiveor5.wcnf
c optimal
c final solution cost: 63
c CPU time: 11.487365
s OPTIMUM FOUND

c File: j9028_2.smor5.wcnf
c optimal
c final solution cost: 63
c CPU time: 1.128027
s OPTIMUM FOUND


rcpsp/heur_output_or_constraints/Log=5/heurj90.txt
encoding rcpsp/j90.sm/j9028_3.sm nv: 3910960 nc: 7909552 enctime: 61.52
encoding rcpsp/j90.sm/j9028_3.sm nv: 693880 nc: 1400320 enctime: 8.56
c File: j9028_3.smnaiveor5.wcnf
c optimal
c final solution cost: 86
c CPU time: 9.853006
s OPTIMUM FOUND

c File: j9028_3.smor5.wcnf
c optimal
c final solution cost: 86
c CPU time: 1.377952
s OPTIMUM FOUND


rcpsp/heur_output_or_constraints/Log=5/heurj90.txt
encoding rcpsp/j90.sm/j9028_4.sm nv: 4349682 nc: 8778333 enctime: 66.72
encoding rcpsp/j90.sm/j9028_4.sm nv: 685878 nc: 1381095 enctime: 8.42
c File: j9028_4.smnaiveor5.wcnf
c optimal
c final solution cost: 78
c CPU time: 11.277691
s OPTIMUM FOUND

c File: j9028_4.smor5.wcnf
c optimal
c final solution cost: 78
c CPU time: 1.187872
s OPTIMUM FOUND


rcpsp/heur_output_or_constraints/Log=5/heurj90.txt
encoding rcpsp/j90.sm/j9028_5.sm nv: 5231616 nc: 10521766 enctime: 79.46
encoding rcpsp/j90.sm/j9028_5.sm nv: 858312 nc: 1722942 enctime: 10.73
c File: j9028_5.smnaiveor5.wcnf
c optimal
c final solution cost: 83
c CPU time: 12.799681
s OPTIMUM FOUND

c File: j9028_5.smor5.wcnf
c optimal
c final solution cost: 83
c CPU time: 1.500067
s OPTIMUM FOUND


rcpsp/heur_output_or_constraints/Log=5/heurj90.txt
encoding rcpsp/j90.sm/j9028_6.sm nv: 4868916 nc: 9826960 enctime: 76.54
encoding rcpsp/j90.sm/j9028_6.sm nv: 837564 nc: 1687168 enctime: 10.63
c File: j9028_6.smnaiveor5.wcnf
c optimal
c final solution cost: 87
c CPU time: 14.726726
s OPTIMUM FOUND

c File: j9028_6.smor5.wcnf
c optimal
c final solution cost: 87
c CPU time: 2.089612
s OPTIMUM FOUND


rcpsp/heur_output_or_constraints/Log=5/heurj90.txt
encoding rcpsp/j90.sm/j9028_7.sm nv: 4199650 nc: 8474210 enctime: 66.80
encoding rcpsp/j90.sm/j9028_7.sm nv: 752050 nc: 1514546 enctime: 9.29
c File: j9028_7.smnaiveor5.wcnf
c optimal
c final solution cost: 88
c CPU time: 10.284923
s OPTIMUM FOUND

c File: j9028_7.smor5.wcnf
c optimal
c final solution cost: 88
c CPU time: 1.281436
s OPTIMUM FOUND


rcpsp/heur_output_or_constraints/Log=5/heurj90.txt
encoding rcpsp/j90.sm/j9028_8.sm nv: 3440880 nc: 6970594 enctime: 56.40
encoding rcpsp/j90.sm/j9028_8.sm nv: 637200 nc: 1287994 enctime: 8.08
c File: j9028_8.smnaiveor5.wcnf
c optimal
c final solution cost: 88
c CPU time: 8.725295
s OPTIMUM FOUND

c File: j9028_8.smor5.wcnf
c optimal
c final solution cost: 88
c CPU time: 1.279960
s OPTIMUM FOUND


rcpsp/heur_output_or_constraints/Log=5/heurj90.txt
encoding rcpsp/j90.sm/j9028_9.sm nv: 3884808 nc: 7834596 enctime: 61.77
encoding rcpsp/j90.sm/j9028_9.sm nv: 989760 nc: 1993605 enctime: 11.91
c File: j9028_9.smnaiveor5.wcnf
c optimal
c final solution cost: 119
c CPU time: 9.329456
s OPTIMUM FOUND

c File: j9028_9.smor5.wcnf
c optimal
c final solution cost: 119
c CPU time: 1.752791
s OPTIMUM FOUND


rcpsp/heur_output_or_constraints/Log=5/heurj90.txt
encoding rcpsp/j90.sm/j902_8.sm nv: 595595 nc: 1361209 enctime: 18.41
encoding rcpsp/j90.sm/j902_8.sm nv: 96135 nc: 216293 enctime: 1.58
c File: j902_8.smnaiveor5.wcnf
c optimal
c final solution cost: 82
c CPU time: 4.491390
s OPTIMUM FOUND

c File: j902_8.smor5.wcnf
c optimal
c final solution cost: 82
c CPU time: 0.280930
s OPTIMUM FOUND


rcpsp/heur_output_or_constraints/Log=5/heurj90.txt
encoding rcpsp/j90.sm/j9029_10.sm nv: 2752074 nc: 5636668 enctime: 47.78
encoding rcpsp/j90.sm/j9029_10.sm nv: 779940 nc: 1594696 enctime: 10.48
c File: j9029_10.smnaiveor5.wcnf
c timeout
c final solution cost: 164
c CPU time: 66.315905
s UNKNOWN

c File: j9029_10.smor5.wcnf
c timeout
c final solution cost: 129
c CPU time: 61.301556
s UNKNOWN


rcpsp/heur_output_or_constraints/Log=5/heurj90.txt
encoding rcpsp/j90.sm/j9029_1.sm nv: 2155964 nc: 4416683 enctime: 36.59
encoding rcpsp/j90.sm/j9029_1.sm nv: 729934 nc: 1493233 enctime: 9.61
c File: j9029_1.smnaiveor5.wcnf
c timeout
c final solution cost: 142
c CPU time: 65.341556
s UNKNOWN

c File: j9029_1.smor5.wcnf
c timeout
c final solution cost: 143
c CPU time: 61.279334
s UNKNOWN


rcpsp/heur_output_or_constraints/Log=5/heurj90.txt
encoding rcpsp/j90.sm/j9029_2.sm nv: 2714608 nc: 5562934 enctime: 46.75
encoding rcpsp/j90.sm/j9029_2.sm nv: 760747 nc: 1556323 enctime: 9.04
c File: j9029_2.smnaiveor5.wcnf
c timeout
c final solution cost: 136
c CPU time: 66.237096
s UNKNOWN

c File: j9029_2.smor5.wcnf
c timeout
c CPU time: 61.067229
s UNKNOWN


rcpsp/heur_output_or_constraints/Log=5/heurj90.txt
encoding rcpsp/j90.sm/j9029_3.sm nv: 2262330 nc: 4659675 enctime: 40.15
encoding rcpsp/j90.sm/j9029_3.sm nv: 747954 nc: 1538099 enctime: 8.79
c File: j9029_3.smnaiveor5.wcnf
c timeout
c final solution cost: 173
c CPU time: 65.541223
s UNKNOWN

c File: j9029_3.smor5.wcnf
c timeout
c CPU time: 61.122568
s UNKNOWN


rcpsp/heur_output_or_constraints/Log=5/heurj90.txt
encoding rcpsp/j90.sm/j9029_4.sm nv: 2232321 nc: 4594835 enctime: 39.24
encoding rcpsp/j90.sm/j9029_4.sm nv: 779688 nc: 1602555 enctime: 10.32
c File: j9029_4.smnaiveor5.wcnf
c timeout
c final solution cost: 164
c CPU time: 65.484684
s UNKNOWN

c File: j9029_4.smor5.wcnf
c timeout
c final solution cost: 159
c CPU time: 61.387243
s UNKNOWN


rcpsp/heur_output_or_constraints/Log=5/heurj90.txt
encoding rcpsp/j90.sm/j9029_5.sm nv: 2860656 nc: 5848146 enctime: 47.95
encoding rcpsp/j90.sm/j9029_5.sm nv: 803094 nc: 1639305 enctime: 10.99
c File: j9029_5.smnaiveor5.wcnf
c timeout
c final solution cost: 130
c CPU time: 66.238284
s UNKNOWN

c File: j9029_5.smor5.wcnf
c timeout
c final solution cost: 129
c CPU time: 61.340117
s UNKNOWN


rcpsp/heur_output_or_constraints/Log=5/heurj90.txt
encoding rcpsp/j90.sm/j9029_6.sm nv: 2947276 nc: 6042801 enctime: 50.13
encoding rcpsp/j90.sm/j9029_6.sm nv: 802760 nc: 1643065 enctime: 11.15
c File: j9029_6.smnaiveor5.wcnf
c timeout
c final solution cost: 149
c CPU time: 66.770921
s UNKNOWN

c File: j9029_6.smor5.wcnf
c timeout
c CPU time: 61.098658
s UNKNOWN


rcpsp/heur_output_or_constraints/Log=5/heurj90.txt
encoding rcpsp/j90.sm/j9029_7.sm nv: 2282480 nc: 4726858 enctime: 40.97
encoding rcpsp/j90.sm/j9029_7.sm nv: 842080 nc: 1741408 enctime: 11.17
c File: j9029_7.smnaiveor5.wcnf
c timeout
c final solution cost: 269
c CPU time: 65.919902
s UNKNOWN

c File: j9029_7.smor5.wcnf
c timeout
c CPU time: 61.322954
s UNKNOWN


rcpsp/heur_output_or_constraints/Log=5/heurj90.txt
encoding rcpsp/j90.sm/j9029_8.sm nv: 2550295 nc: 5262723 enctime: 45.55
encoding rcpsp/j90.sm/j9029_8.sm nv: 861520 nc: 1775118 enctime: 11.73
c File: j9029_8.smnaiveor5.wcnf
c timeout
c final solution cost: 171
c CPU time: 66.395217
s UNKNOWN

c File: j9029_8.smor5.wcnf
c timeout
c CPU time: 61.271756
s UNKNOWN


rcpsp/heur_output_or_constraints/Log=5/heurj90.txt
encoding rcpsp/j90.sm/j9029_9.sm nv: 2451400 nc: 5025510 enctime: 42.25
encoding rcpsp/j90.sm/j9029_9.sm nv: 726150 nc: 1486235 enctime: 9.77
c File: j9029_9.smnaiveor5.wcnf
c timeout
c final solution cost: 142
c CPU time: 65.656543
s UNKNOWN

c File: j9029_9.smor5.wcnf
c timeout
c CPU time: 61.026109
s UNKNOWN


rcpsp/heur_output_or_constraints/Log=5/heurj90.txt
encoding rcpsp/j90.sm/j902_9.sm nv: 523640 nc: 1206157 enctime: 16.50
encoding rcpsp/j90.sm/j902_9.sm nv: 73511 nc: 165988 enctime: 0.76
c File: j902_9.smnaiveor5.wcnf
c optimal
c final solution cost: 72
c CPU time: 3.936199
s OPTIMUM FOUND

c File: j902_9.smor5.wcnf
c optimal
c final solution cost: 72
c CPU time: 0.183924
s OPTIMUM FOUND


rcpsp/heur_output_or_constraints/Log=5/heurj90.txt
encoding rcpsp/j90.sm/j9030_10.sm nv: 4127040 nc: 8354164 enctime: 64.02
encoding rcpsp/j90.sm/j9030_10.sm nv: 756624 nc: 1528660 enctime: 9.43
c File: j9030_10.smnaiveor5.wcnf
c timeout
c final solution cost: 88
c CPU time: 67.703795
s UNKNOWN

c File: j9030_10.smor5.wcnf
c optimal
c final solution cost: 86
c CPU time: 20.052541
s OPTIMUM FOUND


rcpsp/heur_output_or_constraints/Log=5/heurj90.txt
encoding rcpsp/j90.sm/j9030_1.sm nv: 4783047 nc: 9667437 enctime: 73.48
encoding rcpsp/j90.sm/j9030_1.sm nv: 983341 nc: 1984445 enctime: 11.73
c File: j9030_1.smnaiveor5.wcnf
c optimal
c final solution cost: 102
c CPU time: 14.600521
s OPTIMUM FOUND

c File: j9030_1.smor5.wcnf
c optimal
c final solution cost: 102
c CPU time: 1.939679
s OPTIMUM FOUND


rcpsp/heur_output_or_constraints/Log=5/heurj90.txt
encoding rcpsp/j90.sm/j9030_2.sm nv: 4602988 nc: 9265699 enctime: 67.53
encoding rcpsp/j90.sm/j9030_2.sm nv: 812292 nc: 1632619 enctime: 10.09
c File: j9030_2.smnaiveor5.wcnf
c optimal
c final solution cost: 76
c CPU time: 13.458699
s OPTIMUM FOUND

c File: j9030_2.smor5.wcnf
c optimal
c final solution cost: 76
c CPU time: 2.214950
s OPTIMUM FOUND


rcpsp/heur_output_or_constraints/Log=5/heurj90.txt
encoding rcpsp/j90.sm/j9030_3.sm nv: 3649828 nc: 7400978 enctime: 58.02
encoding rcpsp/j90.sm/j9030_3.sm nv: 773976 nc: 1566652 enctime: 9.37
c File: j9030_3.smnaiveor5.wcnf
c timeout
c final solution cost: 93
c CPU time: 67.116031
s UNKNOWN

c File: j9030_3.smor5.wcnf
c timeout
c final solution cost: 92
c CPU time: 61.179717
s UNKNOWN


rcpsp/heur_output_or_constraints/Log=5/heurj90.txt
encoding rcpsp/j90.sm/j9030_4.sm nv: 4471704 nc: 9067593 enctime: 69.69
encoding rcpsp/j90.sm/j9030_4.sm nv: 861600 nc: 1743892 enctime: 10.41
c File: j9030_4.smnaiveor5.wcnf
c timeout
c final solution cost: 93
c CPU time: 68.862461
s UNKNOWN

c File: j9030_4.smor5.wcnf
c timeout
c final solution cost: 93
c CPU time: 61.265380
s UNKNOWN


rcpsp/heur_output_or_constraints/Log=5/heurj90.txt
encoding rcpsp/j90.sm/j9030_5.sm nv: 3638880 nc: 7362073 enctime: 54.15
encoding rcpsp/j90.sm/j9030_5.sm nv: 726180 nc: 1466593 enctime: 8.41
c File: j9030_5.smnaiveor5.wcnf
c timeout
c final solution cost: 86
c CPU time: 66.778455
s UNKNOWN

c File: j9030_5.smor5.wcnf
c timeout
c final solution cost: 84
c CPU time: 61.066720
s UNKNOWN


rcpsp/heur_output_or_constraints/Log=5/heurj90.txt
encoding rcpsp/j90.sm/j9030_6.sm nv: 5374656 nc: 10850205 enctime: 76.24
encoding rcpsp/j90.sm/j9030_6.sm nv: 854112 nc: 1721015 enctime: 9.87
c File: j9030_6.smnaiveor5.wcnf
c timeout
c final solution cost: 78
c CPU time: 69.162415
s UNKNOWN

c File: j9030_6.smor5.wcnf
c optimal
c final solution cost: 78
c CPU time: 3.478963
s OPTIMUM FOUND


rcpsp/heur_output_or_constraints/Log=5/heurj90.txt
encoding rcpsp/j90.sm/j9030_7.sm nv: 4744720 nc: 9599893 enctime: 69.62
encoding rcpsp/j90.sm/j9030_7.sm nv: 840600 nc: 1697603 enctime: 9.76
c File: j9030_7.smnaiveor5.wcnf
c timeout
c final solution cost: 82
c CPU time: 68.722011
s UNKNOWN

c File: j9030_7.smor5.wcnf
c timeout
c final solution cost: 83
c CPU time: 61.163662
s UNKNOWN


rcpsp/heur_output_or_constraints/Log=5/heurj90.txt
encoding rcpsp/j90.sm/j9030_8.sm nv: 5844708 nc: 11807626 enctime: 84.36
encoding rcpsp/j90.sm/j9030_8.sm nv: 848952 nc: 1711462 enctime: 10.31
c File: j9030_8.smnaiveor5.wcnf
c timeout
c final solution cost: 70
c CPU time: 70.431370
s UNKNOWN

c File: j9030_8.smor5.wcnf
c timeout
c final solution cost: 70
c CPU time: 61.157698
s UNKNOWN


rcpsp/heur_output_or_constraints/Log=5/heurj90.txt
encoding rcpsp/j90.sm/j9030_9.sm nv: 4624081 nc: 9388443 enctime: 69.02
encoding rcpsp/j90.sm/j9030_9.sm nv: 875058 nc: 1773281 enctime: 10.11
c File: j9030_9.smnaiveor5.wcnf
c timeout
c final solution cost: 91
c CPU time: 68.929226
s UNKNOWN

c File: j9030_9.smor5.wcnf
c timeout
c final solution cost: 93
c CPU time: 61.244867
s UNKNOWN


rcpsp/heur_output_or_constraints/Log=5/heurj90.txt
encoding rcpsp/j90.sm/j903_10.sm nv: 563992 nc: 1255151 enctime: 14.80
encoding rcpsp/j90.sm/j903_10.sm nv: 82368 nc: 180338 enctime: 1.24
c File: j903_10.smnaiveor5.wcnf
c optimal
c final solution cost: 65
c CPU time: 3.087690
s OPTIMUM FOUND

c File: j903_10.smor5.wcnf
c optimal
c final solution cost: 65
c CPU time: 0.174227
s OPTIMUM FOUND


rcpsp/heur_output_or_constraints/Log=5/heurj90.txt
encoding rcpsp/j90.sm/j9031_10.sm nv: 5031180 nc: 10143370 enctime: 70.81
encoding rcpsp/j90.sm/j9031_10.sm nv: 1049895 nc: 2113775 enctime: 11.91
c File: j9031_10.smnaiveor5.wcnf
c optimal
c final solution cost: 99
c CPU time: 14.502321
s OPTIMUM FOUND

c File: j9031_10.smor5.wcnf
c optimal
c final solution cost: 99
c CPU time: 2.472502
s OPTIMUM FOUND


rcpsp/heur_output_or_constraints/Log=5/heurj90.txt
encoding rcpsp/j90.sm/j9031_1.sm nv: 5749904 nc: 11558132 enctime: 79.07
encoding rcpsp/j90.sm/j9031_1.sm nv: 901468 nc: 1809122 enctime: 10.66
c File: j9031_1.smnaiveor5.wcnf
c optimal
c final solution cost: 67
c CPU time: 14.806646
s OPTIMUM FOUND

c File: j9031_1.smor5.wcnf
c optimal
c final solution cost: 67
c CPU time: 2.182754
s OPTIMUM FOUND


rcpsp/heur_output_or_constraints/Log=5/heurj90.txt
encoding rcpsp/j90.sm/j9031_2.sm nv: 5726880 nc: 11519431 enctime: 79.51
encoding rcpsp/j90.sm/j9031_2.sm nv: 835170 nc: 1676971 enctime: 10.06
c File: j9031_2.smnaiveor5.wcnf
c optimal
c final solution cost: 64
c CPU time: 66.981725
s OPTIMUM FOUND

c File: j9031_2.smor5.wcnf
c optimal
c final solution cost: 64
c CPU time: 3.993024
s OPTIMUM FOUND


rcpsp/heur_output_or_constraints/Log=5/heurj90.txt
encoding rcpsp/j90.sm/j9031_3.sm nv: 5532880 nc: 11139225 enctime: 77.81
encoding rcpsp/j90.sm/j9031_3.sm nv: 1220656 nc: 2454675 enctime: 13.63
c File: j9031_3.smnaiveor5.wcnf
c optimal
c final solution cost: 106
c CPU time: 14.415415
s OPTIMUM FOUND

c File: j9031_3.smor5.wcnf
c optimal
c final solution cost: 106
c CPU time: 2.012921
s OPTIMUM FOUND


rcpsp/heur_output_or_constraints/Log=5/heurj90.txt
encoding rcpsp/j90.sm/j9031_4.sm nv: 6604207 nc: 13266228 enctime: 87.73
encoding rcpsp/j90.sm/j9031_4.sm nv: 1084880 nc: 2176292 enctime: 12.43
c File: j9031_4.smnaiveor5.wcnf
c optimal
c final solution cost: 79
c CPU time: 16.772027
s OPTIMUM FOUND

c File: j9031_4.smor5.wcnf
c optimal
c final solution cost: 79
c CPU time: 1.822856
s OPTIMUM FOUND


rcpsp/heur_output_or_constraints/Log=5/heurj90.txt
encoding rcpsp/j90.sm/j9031_5.sm nv: 6355620 nc: 12791492 enctime: 85.98
encoding rcpsp/j90.sm/j9031_5.sm nv: 909726 nc: 1827599 enctime: 8.39
c File: j9031_5.smnaiveor5.wcnf
c optimal
c final solution cost: 71
c CPU time: 15.843759
s OPTIMUM FOUND

c File: j9031_5.smor5.wcnf
c optimal
c final solution cost: 71
c CPU time: 2.035958
s OPTIMUM FOUND


rcpsp/heur_output_or_constraints/Log=5/heurj90.txt
encoding rcpsp/j90.sm/j9031_6.sm nv: 5538500 nc: 11141370 enctime: 76.68
encoding rcpsp/j90.sm/j9031_6.sm nv: 909480 nc: 1826559 enctime: 10.97
c File: j9031_6.smnaiveor5.wcnf
c optimal
c final solution cost: 77
c CPU time: 14.835999
s OPTIMUM FOUND

c File: j9031_6.smor5.wcnf
c optimal
c final solution cost: 77
c CPU time: 1.567656
s OPTIMUM FOUND


rcpsp/heur_output_or_constraints/Log=5/heurj90.txt
encoding rcpsp/j90.sm/j9031_7.sm nv: 6962956 nc: 14001043 enctime: 95.89
encoding rcpsp/j90.sm/j9031_7.sm nv: 1010100 nc: 2027705 enctime: 12.11
c File: j9031_7.smnaiveor5.wcnf
c optimal
c final solution cost: 63
c CPU time: 17.904895
s OPTIMUM FOUND

c File: j9031_7.smor5.wcnf
c optimal
c final solution cost: 63
c CPU time: 2.386165
s OPTIMUM FOUND


rcpsp/heur_output_or_constraints/Log=5/heurj90.txt
encoding rcpsp/j90.sm/j9031_8.sm nv: 5695332 nc: 11449411 enctime: 78.65
encoding rcpsp/j90.sm/j9031_8.sm nv: 943176 nc: 1893223 enctime: 11.06
c File: j9031_8.smnaiveor5.wcnf
c optimal
c final solution cost: 76
c CPU time: 15.424380
s OPTIMUM FOUND

c File: j9031_8.smor5.wcnf
c optimal
c final solution cost: 76
c CPU time: 2.133982
s OPTIMUM FOUND


